929945
105,140,218,65,189,98,201,104,91,174,53,55,17,52,99,215,23,42,206,38,73,156,139,70,117,31,6,182,88,115,106,195,178,77,54,129,80,39,61,101,168,26,214,74,204,160,183,100,165,95,210,43,12,224,46,47,110,133,226,213,94,78,166,84,24,122,60,181,147,130,123,172,208,72,112,50,176,68,207,158,22,225,190,197,199,200,13,164,96,193,29,7,119,109,9,113,118,192,194,85,69,135,187,180,205,217,159,41,97,198,177,126,146,66,48,82,134,161,71,0,188,59,137,14,136,63,219,64,153,163,173,196,142,10,75,56,28,83,125,121,151,2,184,15,116,19,111,154,132,228,35,25,90,8,67,32,216,20,3,141,169,149,185,170,89,108,87,227,152,128,102,186,11,145,223,37,202,5,103,211,212,51,79,131,171,167,203,1,114,148,157,179,120,40,127,221,76,81,229,44,92,220,58,138,57,45,124,18,16,175,222,4,155,144,143,21,191,36,33,86,34,93,107,150,27,49,209,62,162,30,105